(set-option :print-success false)
(set-logic QF_UF)
(declare-sort x6 0)
(declare-sort x28 0)
(declare-fun x5 () x28)
(declare-fun x155 () x28)
(declare-fun x90 (x28 x28) x28)
(declare-fun x26 () x28)
(declare-fun x148 () x28)
(declare-fun x39 () x28)
(assert (not (and (and (= x39 (x90 x26 x26)) (and (= (x90 x39 x26) x148) (= (x90 x39 x39) x5))) (= x155 (x90 x26 x39)))))
(assert (not (and (= (x90 x148 x155) x5) (and (and (= (x90 x155 x148) x39) (= x26 (x90 x155 x155))) (= (x90 x148 x148) x155)))))
(assert (not (and (= (x90 x26 x155) x5) (and (and (= (x90 x155 x26) x148) (= x39 (x90 x155 x155))) (= (x90 x26 x26) x155)))))
(assert (not (and (and (and (= (x90 x148 x148) x26) (= x5 (x90 x148 x39))) (= x148 (x90 x39 x39))) (= x155 (x90 x39 x148)))))
(assert (not (and (= (x90 x148 x5) x26) (and (and (= x39 (x90 x5 x148)) (= x155 (x90 x5 x5))) (= x5 (x90 x148 x148))))))
(assert (not (and (= (x90 x5 x39) x155) (and (= (x90 x5 x5) x39) (and (= x148 (x90 x39 x5)) (= (x90 x39 x39) x26))))))
(assert (not (and (and (and (= x39 (x90 x26 x26)) (= (x90 x26 x5) x148)) (= (x90 x5 x5) x26)) (= x155 (x90 x5 x26)))))
(assert (not (and (= (x90 x5 x39) x26) (and (= (x90 x5 x5) x39) (and (= x155 (x90 x39 x5)) (= (x90 x39 x39) x148))))))
(assert (not (and (and (= x155 (x90 x39 x39)) (and (= x148 (x90 x155 x155)) (= x26 (x90 x155 x39)))) (= (x90 x39 x155) x5))))
(assert (not (and (and (= x39 (x90 x5 x5)) (and (= x148 (x90 x39 x5)) (= x155 (x90 x39 x39)))) (= (x90 x5 x39) x26))))
(assert (not (and (and (= x5 (x90 x26 x26)) (and (= (x90 x5 x5) x155) (= x39 (x90 x5 x26)))) (= x148 (x90 x26 x5)))))
(assert (let ((x142 (x90 x39 x39)) (x3 (x90 x148 x155)) (x25 (x90 x155 x155)) (x50 (x90 x5 x26)) (x152 (x90 x5 x155)) (x73 (x90 x26 x5)) (x136 (x90 x155 x148)) (x48 (x90 x39 x26)) (x31 (x90 x5 x39)) (x19 (x90 x39 x5)) (x7 (x90 x39 x155)) (x128 (x90 x26 x26)) (x133 (x90 x26 x148)) (x150 (x90 x26 x39)) (x65 (x90 x155 x26)) (x96 (x90 x26 x155)) (x146 (x90 x39 x148)) (x145 (x90 x148 x26)) (x113 (x90 x5 x148)) (x11 (x90 x155 x5)) (x119 (x90 x148 x148)) (x64 (x90 x5 x5)) (x141 (x90 x155 x39)) (x18 (x90 x148 x5)) (x27 (x90 x148 x39))) (and (and (and (and (not (= x25 x3)) (and (and (and (and (not (= x152 x3)) (and (and (not (= x7 x96)) (and (not (= x152 x96)) (not (= x3 x96)))) (not (= x96 x25)))) (not (= x7 x152))) (not (= x152 x25))) (not (= x3 x7)))) (not (= x7 x25))) (and (and (not (= x142 x141)) (and (and (not (= x142 x27)) (and (not (= x141 x31)) (and (and (not (= x27 x31)) (and (and (not (= x142 x150)) (and (not (= x150 x31)) (not (= x150 x27)))) (not (= x150 x141)))) (not (= x31 x142))))) (not (= x27 x141)))) (and (and (not (= x146 x136)) (and (and (not (= x119 x146)) (and (and (not (= x113 x146)) (and (and (and (and (not (= x113 x133)) (not (= x133 x119))) (not (= x146 x133))) (not (= x133 x136))) (not (= x113 x119)))) (not (= x136 x113)))) (not (= x136 x119)))) (and (and (and (and (and (and (not (= x64 x19)) (and (and (not (= x73 x11)) (and (not (= x73 x19)) (and (not (= x73 x64)) (not (= x73 x18))))) (not (= x18 x64)))) (not (= x11 x64))) (not (= x18 x19))) (not (= x18 x11))) (not (= x11 x19))) (and (and (not (= x145 x65)) (and (and (and (and (not (= x50 x145)) (and (and (and (not (= x145 x128)) (not (= x50 x128))) (not (= x128 x48))) (not (= x128 x65)))) (not (= x50 x48))) (not (= x65 x50))) (not (= x145 x48)))) (not (= x48 x65))))))) (and (and (not (= x25 x141)) (and (not (= x25 x136)) (and (and (not (= x25 x11)) (and (not (= x141 x11)) (and (and (and (not (= x141 x65)) (and (not (= x11 x65)) (not (= x65 x136)))) (not (= x25 x65))) (not (= x11 x136))))) (not (= x141 x136))))) (and (and (not (= x7 x142)) (and (not (= x146 x7)) (and (and (not (= x19 x7)) (and (and (not (= x146 x19)) (and (and (not (= x142 x48)) (and (not (= x48 x19)) (not (= x48 x146)))) (not (= x48 x7)))) (not (= x142 x19)))) (not (= x146 x142))))) (and (and (and (not (= x152 x31)) (and (not (= x113 x152)) (and (and (and (and (and (not (= x50 x152)) (and (not (= x31 x50)) (and (not (= x113 x50)) (not (= x50 x64))))) (not (= x64 x113))) (not (= x31 x64))) (not (= x152 x64))) (not (= x113 x31))))) (and (and (not (= x133 x96)) (and (not (= x150 x133)) (and (not (= x73 x96)) (and (and (and (and (and (not (= x133 x128)) (not (= x128 x73))) (not (= x128 x150))) (not (= x128 x96))) (not (= x73 x133))) (not (= x150 x73)))))) (not (= x150 x96)))) (and (not (= x27 x3)) (and (and (and (and (not (= x18 x27)) (and (not (= x18 x119)) (and (not (= x3 x145)) (and (not (= x145 x27)) (and (not (= x145 x119)) (not (= x145 x18))))))) (not (= x18 x3))) (not (= x119 x27))) (not (= x119 x3))))))))))
(assert (not (and (= (x90 x155 x148) x26) (and (and (= (x90 x148 x155) x5) (= x39 (x90 x148 x148))) (= x148 (x90 x155 x155))))))
(assert (not (and (= x155 (x90 x148 x39)) (and (and (= x5 (x90 x39 x148)) (= (x90 x39 x39) x26)) (= x39 (x90 x148 x148))))))
(assert (not (and (and (and (= (x90 x39 x39) x148) (= x5 (x90 x39 x26))) (= x39 (x90 x26 x26))) (= x155 (x90 x26 x39)))))
(assert (not (and (and (and (= (x90 x155 x148) x5) (= x39 (x90 x155 x155))) (= (x90 x148 x148) x155)) (= x26 (x90 x148 x155)))))
(assert (not (and (= (x90 x26 x148) x155) (and (= (x90 x26 x26) x148) (and (= (x90 x148 x148) x39) (= (x90 x148 x26) x5))))))
(assert (not (and (and (and (= (x90 x39 x39) x148) (= (x90 x39 x26) x155)) (= (x90 x26 x26) x39)) (= x5 (x90 x26 x39)))))
(assert (not (and (= (x90 x39 x148) x26) (and (and (= x5 (x90 x148 x39)) (= x155 (x90 x148 x148))) (= (x90 x39 x39) x148)))))
(assert (not (and (and (= x5 (x90 x26 x26)) (and (= x148 (x90 x5 x5)) (= (x90 x5 x26) x39))) (= (x90 x26 x5) x155))))
(assert (not (and (and (= (x90 x155 x155) x39) (and (= (x90 x39 x155) x26) (= x5 (x90 x39 x39)))) (= (x90 x155 x39) x148))))
(assert (not (and (= x155 (x90 x5 x39)) (and (= (x90 x5 x5) x39) (and (= (x90 x39 x5) x26) (= x148 (x90 x39 x39)))))))
(assert (not (and (= x155 (x90 x148 x5)) (and (and (= (x90 x5 x148) x39) (= x26 (x90 x5 x5))) (= x5 (x90 x148 x148))))))
(assert (not (and (and (and (= x39 (x90 x148 x26)) (= (x90 x148 x148) x5)) (= x148 (x90 x26 x26))) (= (x90 x26 x148) x155))))
(assert (not (and (= x5 (x90 x148 x26)) (and (and (= (x90 x26 x26) x155) (= x39 (x90 x26 x148))) (= x26 (x90 x148 x148))))))
(assert (not (and (and (and (= (x90 x5 x5) x39) (= (x90 x5 x26) x155)) (= x5 (x90 x26 x26))) (= (x90 x26 x5) x148))))
(assert (not (and (and (= x39 (x90 x148 x148)) (and (= x26 (x90 x39 x148)) (= x5 (x90 x39 x39)))) (= x155 (x90 x148 x39)))))
(assert (not (and (and (= (x90 x148 x148) x5) (and (= x26 (x90 x5 x148)) (= x39 (x90 x5 x5)))) (= (x90 x148 x5) x155))))
(assert (not (and (and (= (x90 x148 x148) x26) (and (= x155 (x90 x26 x148)) (= (x90 x26 x26) x39))) (= (x90 x148 x26) x5))))
(assert (not (and (= (x90 x39 x26) x148) (and (and (= (x90 x26 x39) x5) (= x155 (x90 x26 x26))) (= (x90 x39 x39) x26)))))
(assert (not (and (= x148 (x90 x155 x26)) (and (and (= x5 (x90 x26 x26)) (= x39 (x90 x26 x155))) (= x26 (x90 x155 x155))))))
(assert (not (and (and (= (x90 x39 x39) x148) (and (= x155 (x90 x148 x148)) (= x26 (x90 x148 x39)))) (= (x90 x39 x148) x5))))
(assert (not (and (and (= x26 (x90 x148 x148)) (and (= x5 (x90 x26 x26)) (= (x90 x26 x148) x39))) (= x155 (x90 x148 x26)))))
(assert (not (and (= (x90 x5 x148) x155) (and (= (x90 x5 x5) x148) (and (= (x90 x148 x148) x39) (= x26 (x90 x148 x5)))))))
(assert (not (and (= (x90 x39 x5) x155) (and (= (x90 x39 x39) x5) (and (= (x90 x5 x5) x148) (= (x90 x5 x39) x26))))))
(assert (not (and (= (x90 x26 x39) x5) (and (and (= x148 (x90 x39 x26)) (= x155 (x90 x39 x39))) (= (x90 x26 x26) x39)))))
(assert (not (and (and (and (= x26 (x90 x39 x155)) (= x148 (x90 x39 x39))) (= x39 (x90 x155 x155))) (= x5 (x90 x155 x39)))))
(assert (not (and (= x39 (x90 x148 x5)) (and (and (= x26 (x90 x5 x148)) (= (x90 x5 x5) x155)) (= (x90 x148 x148) x5)))))
(assert (not (and (= (x90 x5 x26) x39) (and (= x26 (x90 x5 x5)) (and (= x155 (x90 x26 x5)) (= x148 (x90 x26 x26)))))))
(assert (let ((x128 (x90 x26 x26)) (x65 (x90 x155 x155)) (x50 (x90 x5 x5)) (x145 (x90 x148 x148)) (x48 (x90 x39 x39))) (and (and (or (= x65 x39) (or (or (or (= x39 x128) (= x39 x50)) (= x145 x39)) (= x39 x48))) (and (or (= x148 x65) (or (or (= x145 x148) (or (= x50 x148) (= x128 x148))) (= x48 x148))) (and (or (= x65 x5) (or (= x5 x48) (or (or (= x50 x5) (= x5 x128)) (= x145 x5)))) (or (or (or (or (= x26 x128) (= x50 x26)) (= x26 x145)) (= x26 x48)) (= x26 x65))))) (or (or (= x48 x155) (or (= x155 x145) (or (= x155 x50) (= x128 x155)))) (= x155 x65)))))
(assert (let ((x152 (x90 x5 x155)) (x78 (x90 x155 x5)) (x76 (x90 x155 x39)) (x92 (x90 x155 x155)) (x65 (x90 x26 x39)) (x73 (x90 x26 x155)) (x151 (x90 x148 x148)) (x19 (x90 x148 x26)) (x145 (x90 x26 x5)) (x141 (x90 x5 x148)) (x50 (x90 x26 x26)) (x96 (x90 x5 x39)) (x48 (x90 x26 x148)) (x11 (x90 x39 x26)) (x56 (x90 x39 x39)) (x97 (x90 x39 x155)) (x143 (x90 x39 x148)) (x106 (x90 x155 x148)) (x38 (x90 x148 x155)) (x18 (x90 x5 x26)) (x133 (x90 x155 x26)) (x33 (x90 x39 x5)) (x142 (x90 x5 x5)) (x37 (x90 x148 x39)) (x25 (x90 x148 x5))) (let ((x101 (= x39 x142)) (x10 (= x155 x37)) (x75 (= x39 x151)) (x59 (= x155 x145)) (x150 (= x145 x26)) (x91 (= x133 x155)) (x135 (= x152 x148)) (x108 (= x26 x141)) (x120 (= x19 x148)) (x34 (= x33 x26)) (x139 (= x152 x39)) (x109 (= x5 x92)) (x102 (= x26 x97)) (x63 (= x38 x148)) (x49 (= x11 x5)) (x68 (= x39 x141)) (x57 (= x39 x37)) (x137 (= x39 x106)) (x58 (= x155 x56)) (x82 (= x148 x97)) (x107 (= x5 x56)) (x44 (= x5 x151)) (x55 (= x155 x96)) (x89 (= x39 x38)) (x20 (= x141 x5)) (x111 (= x37 x5)) (x23 (= x5 x76)) (x123 (= x5 x152)) (x16 (= x96 x148)) (x7 (= x142 x5)) (x15 (= x65 x26)) (x53 (= x38 x26)) (x86 (= x148 x142)) (x114 (= x96 x39)) (x45 (= x33 x39)) (x83 (= x73 x39)) (x153 (= x25 x155)) (x117 (= x26 x143)) (x115 (= x48 x26)) (x17 (= x5 x106)) (x36 (= x37 x26)) (x98 (= x97 x5)) (x128 (= x26 x50)) (x103 (= x78 x5)) (x131 (= x97 x155)) (x112 (= x73 x5)) (x13 (= x26 x92)) (x154 (= x26 x19)) (x147 (= x39 x25)) (x99 (= x78 x155)) (x74 (= x141 x155)) (x30 (= x5 x38)) (x67 (= x148 x48)) (x130 (= x151 x155)) (x158 (= x148 x143)) (x62 (= x56 x148)) (x80 (= x39 x56)) (x136 (= x18 x26)) (x105 (= x39 x65)) (x132 (= x37 x148)) (x31 (= x142 x26)) (x24 (= x106 x26)) (x66 (= x141 x148)) (x32 (= x133 x5)) (x8 (= x25 x26)) (x42 (= x145 x148)) (x125 (= x26 x56)) (x9 (= x33 x148)) (x113 (= x50 x148)) (x29 (= x152 x155)) (x156 (= x48 x155)) (x104 (= x39 x92)) (x119 (= x39 x50)) (x71 (= x65 x148)) (x157 (= x26 x133)) (x14 (= x11 x39)) (x21 (= x148 x78)) (x94 (= x76 x26)) (x3 (= x5 x145)) (x60 (= x26 x96)) (x87 (= x33 x5)) (x129 (= x39 x143)) (x100 (= x148 x18)) (x4 (= x148 x11)) (x118 (= x78 x39)) (x124 (= x143 x155)) (x146 (= x155 x50)) (x88 (= x26 x78)) (x149 (= x155 x11)) (x84 (= x76 x148)) (x93 (= x155 x38)) (x72 (= x39 x133)) (x81 (= x5 x25)) (x1 (= x148 x73)) (x140 (= x19 x5)) (x46 (= x151 x26)) (x138 (= x73 x155)) (x35 (= x48 x5)) (x144 (= x19 x39)) (x64 (= x5 x50)) (x51 (= x152 x26)) (x134 (= x48 x39)) (x122 (= x155 x18)) (x22 (= x26 x73)) (x77 (= x151 x148)) (x2 (= x155 x33)) (x70 (= x5 x143)) (x121 (= x65 x5)) (x43 (= x76 x39)) (x61 (= x155 x92)) (x79 (= x155 x76)) (x85 (= x92 x148)) (x116 (= x39 x18)) (x95 (= x148 x133)) (x54 (= x148 x106)) (x41 (= x39 x97)) (x27 (= x5 x18)) (x126 (= x25 x148)) (x69 (= x142 x155)) (x110 (= x155 x106)) (x52 (= x19 x155)) (x12 (= x26 x11)) (x40 (= x65 x155)) (x127 (= x96 x5)) (x47 (= x145 x39))) (and (and (and (and (and (and (and (or (or (or x144 (or x116 x119)) x14) x72) (or (or (or x134 (or x47 x119)) x105) x83)) (and (and (or (or x71 (or (or x42 x113) x67)) x1) (or (or x4 (or (or x113 x100) x120)) x95)) (and (and (or x112 (or x121 (or (or x64 x3) x35))) (or (or (or (or x64 x27) x140) x49) x32)) (and (or (or x12 (or x154 (or x136 x128))) x157) (or (or x15 (or (or x150 x128) x115)) x22))))) (and (or (or (or x156 (or x146 x59)) x40) x138) (or (or x149 (or (or x122 x146) x52)) x91))) (and (and (or (or x55 (or x74 (or x69 x122))) x29) (or (or (or (or x59 x69) x153) x2) x99)) (and (and (and (or (or x9 (or (or x86 x42) x126)) x21) (or (or (or (or x86 x100) x66) x16) x135)) (and (and (or (or (or x8 (or x150 x31)) x34) x88) (or (or (or x108 (or x136 x31)) x60) x51)) (and (or x123 (or x127 (or x20 (or x7 x27)))) (or x103 (or (or x81 (or x7 x3)) x87))))) (and (or x139 (or x114 (or (or x116 x101) x68))) (or x118 (or (or (or x101 x47) x147) x45)))))) (and (and (or (or (or x130 (or x74 x156)) x124) x110) (or (or x10 (or (or x153 x52) x130)) x93)) (and (and (and (and (or (or x70 (or (or x35 x20) x44)) x17) (or (or (or x44 (or x140 x81)) x111) x30)) (and (or x24 (or (or (or x115 x108) x46) x117)) (or (or (or (or x8 x154) x46) x36) x53))) (and (or x63 (or (or (or x126 x120) x77) x132)) (or (or x158 (or (or x67 x66) x77)) x54))) (and (or (or (or (or x134 x68) x75) x129) x137) (or (or (or x75 (or x144 x147)) x57) x89))))) (and (and (or (or (or x124 (or x2 x149)) x58) x131) (or x79 (or x58 (or (or x40 x55) x10)))) (and (and (and (or x82 (or x62 (or x158 (or x9 x4)))) (or (or (or x132 (or x71 x16)) x62) x84)) (and (and (or x98 (or x107 (or (or x49 x87) x70))) (or (or x107 (or x111 (or x127 x121))) x23)) (and (or x102 (or x125 (or x117 (or x12 x34)))) (or x94 (or (or x36 (or x15 x60)) x125))))) (and (or (or (or x129 (or x45 x14)) x80) x41) (or x43 (or x80 (or x57 (or x105 x114)))))))) (and (and (or x61 (or (or (or x29 x138) x93) x131)) (or x61 (or x79 (or (or x91 x99) x110)))) (and (and (or (or (or (or x72 x118) x137) x43) x104) (or x104 (or x41 (or (or x83 x139) x89)))) (and (and (or x85 (or (or (or x135 x1) x63) x82)) (or (or (or (or x21 x95) x54) x84) x85)) (and (and (or x13 (or (or (or x22 x51) x53) x102)) (or x13 (or (or x24 (or x88 x157)) x94))) (and (or (or (or (or x123 x112) x30) x98) x109) (or (or x23 (or x17 (or x32 x103))) x109))))))))))
(assert (not (and (and (= (x90 x155 x155) x5) (and (= (x90 x5 x5) x148) (= x26 (x90 x5 x155)))) (= x39 (x90 x155 x5)))))
(assert (not (and (and (and (= (x90 x148 x5) x39) (= x26 (x90 x148 x148))) (= x148 (x90 x5 x5))) (= (x90 x5 x148) x155))))
(assert (not (and (= (x90 x155 x148) x39) (and (= (x90 x155 x155) x148) (and (= (x90 x148 x155) x5) (= x26 (x90 x148 x148)))))))
(assert (not (and (and (and (= (x90 x155 x39) x148) (= (x90 x155 x155) x26)) (= (x90 x39 x39) x155)) (= x5 (x90 x39 x155)))))
(assert (not (and (and (and (= x155 (x90 x148 x39)) (= (x90 x148 x148) x5)) (= (x90 x39 x39) x148)) (= (x90 x39 x148) x26))))
(assert (not (and (= x39 (x90 x148 x5)) (and (and (= (x90 x5 x148) x155) (= x26 (x90 x5 x5))) (= x5 (x90 x148 x148))))))
(assert (not (and (and (= (x90 x26 x26) x5) (and (= (x90 x5 x5) x155) (= (x90 x5 x26) x148))) (= (x90 x26 x5) x39))))
(assert (not (and (and (and (= (x90 x39 x26) x155) (= (x90 x39 x39) x5)) (= (x90 x26 x26) x39)) (= x148 (x90 x26 x39)))))
(assert (not (and (= x39 (x90 x148 x26)) (and (and (= (x90 x26 x26) x155) (= (x90 x26 x148) x5)) (= x26 (x90 x148 x148))))))
(assert (not (and (= (x90 x5 x26) x148) (and (and (= (x90 x26 x26) x39) (= (x90 x26 x5) x155)) (= x26 (x90 x5 x5))))))
(assert (not (and (= (x90 x26 x148) x39) (and (= x148 (x90 x26 x26)) (and (= (x90 x148 x26) x5) (= x155 (x90 x148 x148)))))))
(assert (not (and (= (x90 x26 x155) x39) (and (and (= x5 (x90 x155 x26)) (= (x90 x155 x155) x148)) (= (x90 x26 x26) x155)))))
(assert (not (and (= (x90 x148 x39) x26) (and (and (= x5 (x90 x39 x39)) (= (x90 x39 x148) x155)) (= x39 (x90 x148 x148))))))
(assert (not (and (and (and (= x39 (x90 x26 x5)) (= (x90 x26 x26) x155)) (= x26 (x90 x5 x5))) (= (x90 x5 x26) x148))))
(assert (not (and (and (= (x90 x155 x155) x26) (and (= x148 (x90 x26 x26)) (= x39 (x90 x26 x155)))) (= x5 (x90 x155 x26)))))
(assert (not (and (and (and (= (x90 x39 x39) x155) (= (x90 x39 x26) x5)) (= (x90 x26 x26) x39)) (= x148 (x90 x26 x39)))))
(assert (not (and (and (and (= (x90 x39 x5) x26) (= x155 (x90 x39 x39))) (= x39 (x90 x5 x5))) (= x148 (x90 x5 x39)))))
(assert (not (and (and (= (x90 x5 x5) x155) (and (= x26 (x90 x155 x155)) (= (x90 x155 x5) x39))) (= (x90 x5 x155) x148))))
(assert (not (and (= (x90 x155 x26) x39) (and (= x26 (x90 x155 x155)) (and (= (x90 x26 x155) x5) (= x148 (x90 x26 x26)))))))
(assert (not (and (and (= x155 (x90 x39 x39)) (and (= x5 (x90 x155 x155)) (= x26 (x90 x155 x39)))) (= x148 (x90 x39 x155)))))
(assert (not (and (and (and (= x155 (x90 x148 x5)) (= (x90 x148 x148) x26)) (= x148 (x90 x5 x5))) (= x39 (x90 x5 x148)))))
(assert (not (and (= x5 (x90 x155 x148)) (and (and (= (x90 x148 x148) x26) (= x39 (x90 x148 x155))) (= x148 (x90 x155 x155))))))
(assert (not (and (and (and (= x5 (x90 x148 x148)) (= x155 (x90 x148 x26))) (= (x90 x26 x26) x148)) (= (x90 x26 x148) x39))))
(assert (not (and (and (= x5 (x90 x39 x39)) (and (= (x90 x5 x39) x148) (= x26 (x90 x5 x5)))) (= x155 (x90 x39 x5)))))
(assert (not (and (and (= (x90 x26 x26) x155) (and (= (x90 x155 x155) x39) (= (x90 x155 x26) x5))) (= x148 (x90 x26 x155)))))
(assert (not (and (and (= (x90 x5 x5) x155) (and (= x39 (x90 x155 x5)) (= x148 (x90 x155 x155)))) (= x26 (x90 x5 x155)))))
(assert (not (and (= (x90 x155 x5) x148) (and (= (x90 x155 x155) x5) (and (= x39 (x90 x5 x155)) (= x26 (x90 x5 x5)))))))
(assert (not (and (and (and (= (x90 x155 x155) x26) (= (x90 x155 x5) x148)) (= (x90 x5 x5) x155)) (= (x90 x5 x155) x39))))
(assert (not (and (and (= x26 (x90 x155 x155)) (and (= x5 (x90 x26 x155)) (= (x90 x26 x26) x39))) (= x148 (x90 x155 x26)))))
(assert (not (and (= (x90 x39 x26) x5) (and (= (x90 x39 x39) x26) (and (= (x90 x26 x26) x155) (= (x90 x26 x39) x148))))))
(assert (not (and (= x26 (x90 x5 x148)) (and (= (x90 x5 x5) x148) (and (= x155 (x90 x148 x5)) (= (x90 x148 x148) x39))))))
(assert (or (and (and (not (= x155 (x90 x39 (x90 x155 x39)))) (and (and (not (= x155 (x90 x5 (x90 x155 x5)))) (not (= (x90 x26 (x90 x155 x26)) x155))) (not (= (x90 x148 (x90 x155 x148)) x155)))) (not (= x155 (x90 x155 (x90 x155 x155))))) (or (and (and (and (and (not (= x39 (x90 x5 (x90 x39 x5)))) (not (= (x90 x26 (x90 x39 x26)) x39))) (not (= x39 (x90 x148 (x90 x39 x148))))) (not (= (x90 x39 (x90 x39 x39)) x39))) (not (= x39 (x90 x155 (x90 x39 x155))))) (or (or (and (not (= x26 (x90 x155 (x90 x26 x155)))) (and (and (not (= (x90 x148 (x90 x26 x148)) x26)) (and (not (= (x90 x5 (x90 x26 x5)) x26)) (not (= (x90 x26 (x90 x26 x26)) x26)))) (not (= x26 (x90 x39 (x90 x26 x39)))))) (and (and (and (not (= (x90 x148 (x90 x5 x148)) x5)) (and (not (= x5 (x90 x26 (x90 x5 x26)))) (not (= (x90 x5 (x90 x5 x5)) x5)))) (not (= x5 (x90 x39 (x90 x5 x39))))) (not (= (x90 x155 (x90 x5 x155)) x5)))) (and (not (= (x90 x155 (x90 x148 x155)) x148)) (and (and (and (not (= x148 (x90 x26 (x90 x148 x26)))) (not (= x148 (x90 x5 (x90 x148 x5))))) (not (= (x90 x148 (x90 x148 x148)) x148))) (not (= x148 (x90 x39 (x90 x148 x39))))))))))
(assert (not (and (= x26 (x90 x39 x155)) (and (= (x90 x39 x39) x155) (and (= x148 (x90 x155 x155)) (= (x90 x155 x39) x5))))))
(assert (not (and (= x39 (x90 x155 x148)) (and (and (= x5 (x90 x148 x148)) (= (x90 x148 x155) x26)) (= (x90 x155 x155) x148)))))
(assert (not (and (= x148 (x90 x155 x5)) (and (= x5 (x90 x155 x155)) (and (= x26 (x90 x5 x155)) (= (x90 x5 x5) x39))))))
(assert (not (and (= x5 (x90 x155 x148)) (and (and (= (x90 x148 x148) x39) (= (x90 x148 x155) x26)) (= (x90 x155 x155) x148)))))
(assert (not (and (and (and (= (x90 x39 x148) x155) (= x26 (x90 x39 x39))) (= (x90 x148 x148) x39)) (= x5 (x90 x148 x39)))))
(assert (not (and (= x39 (x90 x155 x5)) (and (= x5 (x90 x155 x155)) (and (= x26 (x90 x5 x5)) (= x148 (x90 x5 x155)))))))
(assert (not (and (= (x90 x148 x26) x155) (and (= (x90 x148 x148) x26) (and (= x39 (x90 x26 x26)) (= (x90 x26 x148) x5))))))
(assert (not (and (and (= (x90 x148 x148) x155) (and (= x39 (x90 x155 x148)) (= x5 (x90 x155 x155)))) (= (x90 x148 x155) x26))))
(assert (not (and (and (and (= (x90 x148 x148) x155) (= x26 (x90 x148 x5))) (= x148 (x90 x5 x5))) (= (x90 x5 x148) x39))))
(assert (not (and (and (= x39 (x90 x155 x155)) (and (= x5 (x90 x39 x155)) (= (x90 x39 x39) x26))) (= (x90 x155 x39) x148))))
(assert (let ((x96 (x90 x148 x155)) (x133 (x90 x39 x26)) (x19 (x90 x148 x148)) (x7 (x90 x155 x39)) (x65 (x90 x26 x148)) (x119 (x90 x39 x5)) (x48 (x90 x5 x5)) (x31 (x90 x26 x155)) (x150 (x90 x39 x39)) (x113 (x90 x5 x39)) (x64 (x90 x5 x148)) (x152 (x90 x155 x148)) (x145 (x90 x5 x26)) (x128 (x90 x26 x26)) (x11 (x90 x26 x39)) (x141 (x90 x155 x5)) (x136 (x90 x39 x148)) (x142 (x90 x5 x155)) (x18 (x90 x148 x5)) (x50 (x90 x26 x5)) (x25 (x90 x155 x155)) (x146 (x90 x148 x39)) (x73 (x90 x148 x26)) (x3 (x90 x39 x155)) (x27 (x90 x155 x26))) (or (or (or (or (not (= x96 x152)) (or (not (= x141 x142)) (not (= x27 x31)))) (not (= x3 x7))) (not (= x25 x25))) (or (or (or (or (not (= x136 x146)) (or (not (= x19 x19)) (or (not (= x73 x65)) (not (= x64 x18))))) (not (= x96 x152))) (or (or (not (= x141 x142)) (or (or (not (= x64 x18)) (or (not (= x145 x50)) (not (= x48 x48)))) (not (= x119 x113)))) (or (not (= x27 x31)) (or (or (not (= x73 x65)) (or (not (= x128 x128)) (not (= x50 x145)))) (not (= x133 x11)))))) (or (or (or (not (= x136 x146)) (or (not (= x119 x113)) (not (= x11 x133)))) (not (= x150 x150))) (not (= x3 x7)))))))
(assert (not (and (= (x90 x26 x155) x148) (and (and (= x39 (x90 x155 x26)) (= (x90 x155 x155) x5)) (= (x90 x26 x26) x155)))))
(assert (not (and (and (= (x90 x26 x26) x155) (and (= x148 (x90 x155 x155)) (= (x90 x155 x26) x39))) (= x5 (x90 x26 x155)))))
(assert (not (and (and (and (= x148 (x90 x5 x26)) (= (x90 x5 x5) x39)) (= (x90 x26 x26) x5)) (= x155 (x90 x26 x5)))))
(assert (not (and (= (x90 x39 x26) x155) (and (= x26 (x90 x39 x39)) (and (= (x90 x26 x39) x5) (= x148 (x90 x26 x26)))))))
(assert (and (not (= x155 x39)) (and (and (not (= x148 x39)) (and (and (and (not (= x148 x5)) (and (not (= x155 x26)) (and (not (= x26 x39)) (and (not (= x148 x26)) (not (= x5 x26)))))) (not (= x5 x39))) (not (= x155 x5)))) (not (= x155 x148)))))
(assert (not (and (and (= x155 (x90 x148 x148)) (and (= (x90 x155 x148) x26) (= (x90 x155 x155) x39))) (= (x90 x148 x155) x5))))
(assert (not (and (= (x90 x155 x39) x5) (and (= (x90 x155 x155) x39) (and (= x26 (x90 x39 x39)) (= x148 (x90 x39 x155)))))))
(assert (not (and (and (and (= (x90 x39 x39) x155) (= (x90 x39 x148) x5)) (= x39 (x90 x148 x148))) (= (x90 x148 x39) x26))))
(assert (not (and (and (= x26 (x90 x148 x148)) (and (= (x90 x26 x148) x155) (= x5 (x90 x26 x26)))) (= (x90 x148 x26) x39))))
(assert (not (and (= (x90 x5 x155) x26) (and (= x155 (x90 x5 x5)) (and (= (x90 x155 x5) x148) (= (x90 x155 x155) x39))))))
(assert (and (not (= (x90 x155 x155) x155)) (and (not (= (x90 x39 x39) x39)) (and (not (= (x90 x148 x148) x148)) (and (not (= x5 (x90 x5 x5))) (not (= (x90 x26 x26) x26)))))))
(assert (not (and (= x5 (x90 x39 x148)) (and (and (= x26 (x90 x148 x148)) (= (x90 x148 x39) x155)) (= x148 (x90 x39 x39))))))
(assert (not (and (= (x90 x39 x5) x26) (and (and (= (x90 x5 x5) x155) (= x148 (x90 x5 x39))) (= x5 (x90 x39 x39))))))
(assert (not (and (= x39 (x90 x155 x26)) (and (= x26 (x90 x155 x155)) (and (= x148 (x90 x26 x155)) (= x5 (x90 x26 x26)))))))
(assert (not (and (and (= x5 (x90 x155 x155)) (and (= (x90 x5 x5) x39) (= x148 (x90 x5 x155)))) (= (x90 x155 x5) x26))))
(assert (not (and (= (x90 x155 x39) x26) (and (= (x90 x155 x155) x39) (and (= x5 (x90 x39 x155)) (= (x90 x39 x39) x148))))))
(assert (not (and (and (= (x90 x26 x26) x5) (and (= (x90 x5 x5) x148) (= x155 (x90 x5 x26)))) (= x39 (x90 x26 x5)))))
(assert (not (and (= x155 (x90 x39 x148)) (and (and (= x26 (x90 x148 x39)) (= x5 (x90 x148 x148))) (= x148 (x90 x39 x39))))))
(assert (not (and (and (and (= (x90 x5 x39) x26) (= (x90 x5 x5) x155)) (= (x90 x39 x39) x5)) (= x148 (x90 x39 x5)))))
(assert (not (and (and (= x39 (x90 x148 x148)) (and (= x155 (x90 x39 x39)) (= (x90 x39 x148) x26))) (= (x90 x148 x39) x5))))
(assert (not (and (= (x90 x5 x39) x148) (and (= x39 (x90 x5 x5)) (and (= x26 (x90 x39 x39)) (= (x90 x39 x5) x155))))))
(assert (not (and (and (= x148 (x90 x155 x155)) (and (= x39 (x90 x148 x155)) (= x5 (x90 x148 x148)))) (= x26 (x90 x155 x148)))))
(assert (not (and (= (x90 x39 x26) x5) (and (= x26 (x90 x39 x39)) (and (= (x90 x26 x26) x148) (= x155 (x90 x26 x39)))))))
(assert (not (and (and (and (= (x90 x5 x5) x148) (= x155 (x90 x5 x39))) (= x5 (x90 x39 x39))) (= x26 (x90 x39 x5)))))
(assert (not (and (and (= (x90 x155 x155) x26) (and (= (x90 x26 x26) x39) (= (x90 x26 x155) x148))) (= (x90 x155 x26) x5))))
(assert (not (and (= x39 (x90 x26 x155)) (and (and (= x5 (x90 x155 x155)) (= (x90 x155 x26) x148)) (= x155 (x90 x26 x26))))))
(assert (not (and (= (x90 x148 x155) x39) (and (and (= (x90 x155 x155) x26) (= (x90 x155 x148) x5)) (= x155 (x90 x148 x148))))))
(assert (not (and (and (= (x90 x39 x39) x26) (and (= (x90 x26 x39) x155) (= x5 (x90 x26 x26)))) (= x148 (x90 x39 x26)))))
(assert (not (and (and (and (= x155 (x90 x26 x26)) (= x148 (x90 x26 x5))) (= x26 (x90 x5 x5))) (= x39 (x90 x5 x26)))))
(assert (not (and (and (= (x90 x5 x5) x155) (and (= x26 (x90 x155 x5)) (= x148 (x90 x155 x155)))) (= (x90 x5 x155) x39))))
(assert (not (and (= (x90 x39 x155) x26) (and (and (= (x90 x155 x39) x148) (= x5 (x90 x155 x155))) (= x155 (x90 x39 x39))))))
(assert (not (and (= (x90 x26 x148) x5) (and (and (= x39 (x90 x148 x26)) (= x155 (x90 x148 x148))) (= (x90 x26 x26) x148)))))
(assert (or (and (not (= (x90 x155 x155) x155)) (and (and (and (not (= (x90 x5 x155) x5)) (not (= (x90 x26 x155) x26))) (not (= (x90 x148 x155) x148))) (not (= (x90 x39 x155) x39)))) (or (and (and (not (= x39 (x90 x39 x39))) (and (and (not (= x26 (x90 x26 x39))) (not (= x5 (x90 x5 x39)))) (not (= x148 (x90 x148 x39))))) (not (= (x90 x155 x39) x155))) (or (and (and (and (not (= (x90 x148 x148) x148)) (and (not (= (x90 x5 x148) x5)) (not (= (x90 x26 x148) x26)))) (not (= (x90 x39 x148) x39))) (not (= (x90 x155 x148) x155))) (or (and (and (not (= x39 (x90 x39 x5))) (and (not (= x148 (x90 x148 x5))) (and (not (= (x90 x5 x5) x5)) (not (= x26 (x90 x26 x5)))))) (not (= x155 (x90 x155 x5)))) (and (and (and (and (not (= x26 (x90 x26 x26))) (not (= x5 (x90 x5 x26)))) (not (= x148 (x90 x148 x26)))) (not (= (x90 x39 x26) x39))) (not (= x155 (x90 x155 x26)))))))))
(assert (and (and (and (and (or (or (or (or (= (x90 x5 (x90 x5 x26)) x26) (= x5 (x90 x5 (x90 x5 x5)))) (= (x90 x5 (x90 x5 x148)) x148)) (= (x90 x5 (x90 x5 x39)) x39)) (= x155 (x90 x5 (x90 x5 x155)))) (or (or (or (or (= (x90 x26 (x90 x26 x26)) x26) (= x5 (x90 x26 (x90 x26 x5)))) (= x148 (x90 x26 (x90 x26 x148)))) (= x39 (x90 x26 (x90 x26 x39)))) (= (x90 x26 (x90 x26 x155)) x155))) (or (or (or (= (x90 x148 (x90 x148 x148)) x148) (or (= (x90 x148 (x90 x148 x26)) x26) (= x5 (x90 x148 (x90 x148 x5))))) (= (x90 x148 (x90 x148 x39)) x39)) (= (x90 x148 (x90 x148 x155)) x155))) (or (or (= x39 (x90 x39 (x90 x39 x39))) (or (= (x90 x39 (x90 x39 x148)) x148) (or (= (x90 x39 (x90 x39 x5)) x5) (= x26 (x90 x39 (x90 x39 x26)))))) (= (x90 x39 (x90 x39 x155)) x155))) (or (or (or (= x148 (x90 x155 (x90 x155 x148))) (or (= x26 (x90 x155 (x90 x155 x26))) (= (x90 x155 (x90 x155 x5)) x5))) (= (x90 x155 (x90 x155 x39)) x39)) (= (x90 x155 (x90 x155 x155)) x155))))
(assert (not (and (= (x90 x155 x39) x26) (and (= (x90 x155 x155) x39) (and (= x5 (x90 x39 x39)) (= (x90 x39 x155) x148))))))
(assert (not (and (and (= x5 (x90 x155 x155)) (and (= (x90 x5 x5) x148) (= (x90 x5 x155) x39))) (= (x90 x155 x5) x26))))
(assert (not (and (and (= x148 (x90 x26 x26)) (and (= (x90 x148 x26) x155) (= x39 (x90 x148 x148)))) (= (x90 x26 x148) x5))))
(assert (not (and (and (and (= (x90 x155 x148) x26) (= x5 (x90 x155 x155))) (= x155 (x90 x148 x148))) (= (x90 x148 x155) x39))))
(assert (not (and (= (x90 x5 x26) x155) (and (= x26 (x90 x5 x5)) (and (= x39 (x90 x26 x5)) (= x148 (x90 x26 x26)))))))
(assert (not (and (and (= (x90 x39 x39) x5) (and (= (x90 x5 x5) x26) (= (x90 x5 x39) x155))) (= x148 (x90 x39 x5)))))
(assert (not (and (= x155 (x90 x39 x26)) (and (= x26 (x90 x39 x39)) (and (= (x90 x26 x39) x148) (= x5 (x90 x26 x26)))))))
(assert (not (and (= (x90 x148 x5) x26) (and (and (= (x90 x5 x5) x39) (= x155 (x90 x5 x148))) (= x5 (x90 x148 x148))))))
(assert (not (and (and (= x148 (x90 x5 x5)) (and (= (x90 x148 x5) x39) (= (x90 x148 x148) x155))) (= x26 (x90 x5 x148)))))
(assert (not (and (= x148 (x90 x39 x155)) (and (and (= (x90 x155 x39) x5) (= (x90 x155 x155) x26)) (= x155 (x90 x39 x39))))))
(assert (not (and (and (and (= x39 (x90 x155 x155)) (= x26 (x90 x155 x5))) (= x155 (x90 x5 x5))) (= x148 (x90 x5 x155)))))
(assert (let ((x113 (x90 x148 x5)) (x27 (x90 x39 x148)) (x18 (x90 x5 x148)) (x31 (x90 x39 x5)) (x141 (x90 x39 x155)) (x65 (x90 x26 x155)) (x11 (x90 x5 x155)) (x119 (x90 x148 x148)) (x96 (x90 x155 x26)) (x133 (x90 x148 x26)) (x48 (x90 x26 x39)) (x146 (x90 x148 x39)) (x142 (x90 x39 x39)) (x152 (x90 x155 x5)) (x150 (x90 x39 x26)) (x7 (x90 x155 x39)) (x136 (x90 x148 x155)) (x128 (x90 x26 x26)) (x73 (x90 x5 x26)) (x19 (x90 x5 x39)) (x3 (x90 x155 x148)) (x145 (x90 x26 x148)) (x64 (x90 x5 x5)) (x50 (x90 x26 x5)) (x25 (x90 x155 x155))) (and (and (and (and (and (and (and (and (or (or (or (= x128 x148) (or (= x128 x5) (= x128 x26))) (= x39 x128)) (= x128 x155)) (or (= x50 x155) (or (= x39 x50) (or (= x50 x148) (or (= x50 x26) (= x5 x50)))))) (or (or (or (= x145 x148) (or (= x145 x5) (= x26 x145))) (= x39 x145)) (= x155 x145))) (or (or (or (= x148 x48) (or (= x48 x26) (= x48 x5))) (= x48 x39)) (= x48 x155))) (or (= x65 x155) (or (or (= x148 x65) (or (= x5 x65) (= x26 x65))) (= x65 x39)))) (and (or (= x11 x155) (or (= x39 x11) (or (or (= x11 x5) (= x11 x26)) (= x148 x11)))) (and (and (or (or (= x39 x18) (or (= x148 x18) (or (= x18 x5) (= x26 x18)))) (= x155 x18)) (and (or (= x155 x64) (or (= x39 x64) (or (= x148 x64) (or (= x64 x26) (= x64 x5))))) (or (= x73 x155) (or (= x73 x39) (or (= x73 x148) (or (= x73 x26) (= x5 x73))))))) (or (or (= x39 x19) (or (= x148 x19) (or (= x5 x19) (= x26 x19)))) (= x19 x155))))) (and (or (or (or (= x148 x136) (or (= x26 x136) (= x136 x5))) (= x136 x39)) (= x155 x136)) (and (or (= x146 x155) (or (= x39 x146) (or (= x146 x148) (or (= x5 x146) (= x26 x146))))) (and (or (or (= x39 x119) (or (or (= x119 x5) (= x26 x119)) (= x119 x148))) (= x119 x155)) (and (or (or (or (or (= x113 x5) (= x113 x26)) (= x148 x113)) (= x113 x39)) (= x155 x113)) (or (= x155 x133) (or (or (= x133 x148) (or (= x5 x133) (= x133 x26))) (= x39 x133)))))))) (and (and (and (and (or (or (= x39 x31) (or (= x148 x31) (or (= x31 x26) (= x5 x31)))) (= x31 x155)) (or (or (= x39 x150) (or (= x150 x148) (or (= x150 x26) (= x150 x5)))) (= x155 x150))) (or (= x27 x155) (or (= x27 x39) (or (or (= x27 x5) (= x26 x27)) (= x148 x27))))) (or (= x142 x155) (or (or (or (= x142 x5) (= x142 x26)) (= x148 x142)) (= x142 x39)))) (or (= x141 x155) (or (or (= x148 x141) (or (= x141 x26) (= x5 x141))) (= x39 x141))))) (and (and (and (or (or (or (= x148 x3) (or (= x5 x3) (= x26 x3))) (= x39 x3)) (= x155 x3)) (and (or (or (= x39 x96) (or (= x96 x148) (or (= x96 x26) (= x96 x5)))) (= x155 x96)) (or (or (= x39 x152) (or (or (= x152 x26) (= x5 x152)) (= x148 x152))) (= x155 x152)))) (or (= x7 x155) (or (= x39 x7) (or (= x7 x148) (or (= x5 x7) (= x26 x7)))))) (or (= x25 x155) (or (or (or (= x5 x25) (= x25 x26)) (= x25 x148)) (= x39 x25)))))))
(check-sat)
(exit)
